c SAT Generator for power-law distributed variable frequencies
c -g u -v 20 -c 91 -k 3 -p 2.750000 -b 3.200000 -f /home/schmidt/Devel/ni-kop-sat/data/ensemble/ruf20-91/ruf20-91-2 -u 1 -U 1 -s 276189561
p cnf 20 91
-1 4 19 0
2 7 10 0
6 9 16 0
-5 6 9 0
-3 -7 15 0
1 17 20 0
-1 13 -20 0
-5 -13 18 0
-1 -5 -8 0
8 -9 16 0
5 13 -19 0
-7 -12 -13 0
-1 -13 19 0
-2 14 18 0
-10 -15 -18 0
-5 -9 -14 0
10 -14 -18 0
4 -8 -16 0
-13 15 -17 0
14 16 17 0
-16 18 -20 0
-7 -16 19 0
3 10 13 0
1 -6 12 0
-4 -13 -14 0
1 -9 12 0
-2 -4 5 0
-1 -10 -12 0
7 16 19 0
-4 14 -17 0
5 9 13 0
-6 -8 -13 0
12 -17 19 0
-6 -9 20 0
-4 -10 -12 0
9 11 17 0
-1 5 -6 0
3 -6 20 0
5 -13 18 0
-1 -9 -17 0
1 -10 -14 0
3 6 -8 0
7 15 19 0
8 -14 -20 0
-9 14 -16 0
13 -15 16 0
-1 12 17 0
-10 -15 -19 0
4 5 -11 0
2 14 -19 0
-8 14 16 0
-1 -15 -20 0
-1 -2 18 0
1 12 19 0
-12 -18 19 0
-2 -7 -13 0
-4 -10 16 0
-1 -7 -13 0
-5 -12 -15 0
2 8 15 0
1 -8 -9 0
8 -11 -16 0
1 3 18 0
-8 10 18 0
1 -3 12 0
-8 -12 17 0
-1 8 12 0
9 -13 18 0
-9 -10 18 0
10 18 -19 0
7 -10 17 0
9 -14 -17 0
9 -19 20 0
-1 -2 6 0
2 6 14 0
7 14 15 0
9 -10 19 0
-4 9 -20 0
-1 -13 -20 0
2 -3 -17 0
3 -4 18 0
-7 -11 -16 0
-1 2 -18 0
-2 -7 -18 0
-2 -8 20 0
3 -13 -16 0
2 7 12 0
-6 -16 20 0
-1 7 -11 0
10 -15 17 0
-11 13 20 0
